[2026-02-23T22:37:44] Logging to: /run/media/saveas/Secondary-Storage/Masters/CS234/CS234_Reinforcement_Learning/Final Project/CS234_Final_Project/results/trajectory_optimization/run_trajopt_demo_output.log
======================================================================
IPOPT TRAJECTORY OPTIMIZATION DEMO (SINGLE STAGE)
======================================================================

1. Loading track: /run/media/saveas/Secondary-Storage/Masters/CS234/CS234_Reinforcement_Learning/Final Project/CS234_Final_Project/maps/Medium_Oval_Map_260m_Obstacles.mat
   Track length: 260.0 m

2. Creating vehicle model...
   Vehicle: SingleTrackModel(VW_Golf_GTI, weight_transfer=enabled)

3. Loaded obstacles from map: 4

4. Setup:
   N = 160
   ds = 1.62 m
   Extra obstacle clearance = 0.80 m
   Obstacle subsamples/segment = 11
   Track buffer = 0.00 m

======================================================================
SINGLE STAGE: COMBINED OBJECTIVE
======================================================================

******************************************************************************
This program contains Ipopt, a library for large-scale nonlinear optimization.
 Ipopt is released as open source code under the Eclipse Public License (EPL).
         For more information visit https://github.com/coin-or/Ipopt
******************************************************************************

This is Ipopt version 3.14.11, running with linear solver MUMPS 5.4.1.

Number of nonzeros in equality constraint Jacobian...:    16359
Number of nonzeros in inequality constraint Jacobian.:     4847
Number of nonzeros in Lagrangian Hessian.............:     7452

Total number of variables............................:     1610
                     variables with only lower bounds:        0
                variables with lower and upper bounds:        0
                     variables with only upper bounds:        0
Total number of equality constraints.................:     1290
Total number of inequality constraints...............:     3222
        inequality constraints with only lower bounds:     2578
   inequality constraints with lower and upper bounds:        0
        inequality constraints with only upper bounds:      644

iter    objective    inf_pr   inf_du lg(mu)  ||d||  lg(rg) alpha_du alpha_pr  ls
   0  2.6000000e+01 1.02e+01 1.79e+00  -1.0 0.00e+00    -  0.00e+00 0.00e+00   0
   1  2.6041015e+01 1.02e+01 2.26e+00  -1.0 6.02e+01   0.0 2.73e-03 6.38e-03h  1
   2  2.6126103e+01 1.01e+01 4.75e+00  -1.0 6.82e+01  -0.5 7.66e-03 4.32e-03f  1
   3  2.6475975e+01 1.00e+01 1.53e+01  -1.0 5.52e+01  -1.0 3.67e-03 1.02e-02f  1
   4  2.6793830e+01 9.92e+00 1.53e+01  -1.0 3.80e+01  -0.5 1.24e-02 1.14e-02f  1
   5  2.7023277e+01 9.78e+00 1.50e+01  -1.0 2.42e+01  -0.1 1.49e-02 1.32e-02f  1
   6  2.7564453e+01 9.48e+00 1.46e+01  -1.0 2.43e+01  -0.6 1.70e-02 2.89e-02f  1
   7  5.0889908e+01 8.48e+00 2.15e+02  -1.0 1.90e+01  -0.2 2.66e-02 4.40e-01f  1
   8  5.8214710e+01 6.77e+00 1.37e+02  -1.0 6.02e+00  -0.6 2.25e-01 3.44e-01h  1
   9  5.8284518e+01 5.38e+00 1.08e+02  -1.0 5.57e+00  -1.1 1.70e-01 2.02e-01h  1
iter    objective    inf_pr   inf_du lg(mu)  ||d||  lg(rg) alpha_du alpha_pr  ls
  10  6.6199916e+01 3.72e+00 2.65e+02  -1.0 3.31e+00  -0.7 2.69e-01 1.00e+00h  1
  11  4.2515490e+01 5.51e+00 2.45e+01  -1.0 5.19e+00    -  2.07e-01 1.00e+00f  1
  12  4.9948598e+01 3.67e+00 2.07e+01  -1.0 3.90e+00  -1.2 5.10e-01 1.00e+00h  1
  13  5.2704275e+01 1.08e+01 8.77e+01  -1.0 3.19e+00   0.2 1.22e-01 1.00e+00h  1
  14  4.4299737e+01 1.02e+01 6.22e+01  -1.0 1.20e+01  -0.3 2.41e-01 3.37e-01F  1
  15  4.4382773e+01 1.01e+01 6.18e+01  -1.0 8.92e+00   1.9 1.02e-01 4.54e-03h  1
  16  4.7838692e+01 9.64e+00 7.37e+02  -1.0 8.44e+00   2.4 1.48e-01 4.96e-02h  1
  17  4.8106427e+01 9.61e+00 1.62e+03  -1.0 8.90e+00   2.8 1.71e-01 3.60e-03h  1
  18  5.3558061e+01 9.01e+00 1.03e+05  -1.0 9.10e+00   3.2 6.58e-01 5.12e-02h  1
  19  5.3710544e+01 8.98e+00 1.03e+05  -1.0 4.64e+00   4.5 5.33e-02 2.31e-03h  1
iter    objective    inf_pr   inf_du lg(mu)  ||d||  lg(rg) alpha_du alpha_pr  ls
  20  5.4005492e+01 8.80e+00 1.01e+05  -1.0 2.23e+00   5.0 8.96e-04 1.60e-02h  1
  21  5.9250235e+01 4.65e+00 2.47e+04  -1.0 2.38e+00   4.5 6.98e-02 3.11e-01h  1
  22  5.9011812e+01 4.55e+00 3.87e+04  -1.0 1.94e+00   5.8 1.78e-01 2.32e-02h  1
  23  6.0619007e+01 5.50e+00 3.20e+07  -1.0 2.22e+00   5.3 5.57e-01 1.00e+00h  1
  24  5.6700515e+01 4.11e+00 2.13e+07  -1.0 1.80e+00   6.7 1.36e-02 5.15e-01f  1
  25  6.1129726e+01 5.30e+00 1.13e+08  -1.0 8.19e-01   7.1 6.28e-04 1.00e+00h  1
  26  6.0967493e+01 3.22e+00 1.25e+08  -1.0 3.32e+00   6.6 1.64e-02 3.55e-01h  1
  27  5.9670097e+01 1.54e+00 1.09e+08  -1.0 6.78e-01   7.0 1.00e+00 1.00e+00f  1
  28  6.1579923e+01 8.49e-01 1.80e+09  -1.0 5.04e-01   8.4 4.49e-01 1.90e-01h  3
  29  5.3841415e+01 3.07e-01 6.27e+07  -1.0 1.45e-01   7.9 2.46e-01 1.00e+00f  1
iter    objective    inf_pr   inf_du lg(mu)  ||d||  lg(rg) alpha_du alpha_pr  ls
  30  5.3563824e+01 5.24e-02 8.80e+06  -1.0 1.09e-01   7.4 1.00e+00 1.00e+00h  1
  31  5.3576905e+01 7.06e-04 3.46e+05  -1.0 2.73e-02   6.9 1.00e+00 1.00e+00h  1
  32  5.3576376e+01 1.83e-07 1.92e+02  -1.0 4.21e-05   6.5 1.00e+00 1.00e+00h  1
  33  5.3576008e+01 1.43e-10 4.26e+00  -1.0 4.46e-06   6.0 1.00e+00 1.00e+00h  1
  34  5.3574905e+01 1.29e-09 4.26e+00  -1.0 1.34e-05   5.5 1.00e+00 1.00e+00f  1
  35  5.3571598e+01 1.16e-08 4.26e+00  -1.0 4.01e-05   5.0 1.00e+00 1.00e+00f  1
  36  5.3561701e+01 1.04e-07 4.25e+00  -1.0 1.20e-04   4.5 1.00e+00 1.00e+00f  1
  37  5.3532227e+01 9.22e-07 4.23e+00  -1.0 3.58e-04   4.1 1.00e+00 1.00e+00f  1
  38  5.3445712e+01 7.96e-06 4.16e+00  -1.0 1.06e-03   3.6 1.00e+00 1.00e+00f  1
  39  5.3202179e+01 6.31e-05 3.96e+00  -1.0 3.02e-03   3.1 1.00e+00 1.00e+00f  1
iter    objective    inf_pr   inf_du lg(mu)  ||d||  lg(rg) alpha_du alpha_pr  ls
  40  5.2589843e+01 2.94e-04 3.44e+00  -1.0 7.88e-03   2.6 1.00e+00 1.00e+00f  1
  41  5.1395090e+01 7.00e-04 2.53e+00  -1.0 1.74e-02   2.2 1.00e+00 1.00e+00f  1
  42  4.9790860e+01 1.03e-02 1.67e+00  -1.0 3.43e-02   1.7 1.00e+00 1.00e+00f  1
  43  4.8119380e+01 1.74e-01 8.40e-01  -1.0 5.19e-02   1.2 1.00e+00 1.00e+00f  1
  44  4.5826757e+01 6.38e-02 1.07e+00  -1.7 1.07e-01   0.7 8.19e-01 1.00e+00f  1
  45  4.2092547e+01 3.48e-01 1.44e+00  -1.7 2.10e-01   0.3 9.28e-01 1.00e+00f  1
  46  3.8659973e+01 1.16e+00 9.25e+00  -1.7 4.28e-01  -0.2 8.13e-01 1.00e+00f  1
  47  3.7444327e+01 2.48e-01 1.15e+00  -1.7 7.13e-01  -0.7 1.00e+00 1.00e+00h  1
  48  3.5930178e+01 1.49e-01 1.12e+00  -1.7 8.24e-01  -1.2 1.00e+00 1.00e+00f  1
  49  3.4082220e+01 1.46e-01 2.94e-01  -1.7 9.50e-01  -1.7 1.00e+00 1.00e+00f  1
iter    objective    inf_pr   inf_du lg(mu)  ||d||  lg(rg) alpha_du alpha_pr  ls
  50  3.1761029e+01 2.00e-01 2.97e-01  -1.7 9.60e-01  -2.1 9.71e-01 1.00e+00f  1
  51  2.8730805e+01 6.55e-01 4.70e-01  -1.7 2.12e+00  -2.6 1.00e+00 1.00e+00f  1
  52  2.6080847e+01 1.65e+00 1.08e+00  -1.7 3.98e+00  -3.1 7.47e-01 1.00e+00h  1
  53  2.4410932e+01 2.15e+00 1.03e+00  -1.7 7.01e+03    -  1.19e-02 8.26e-03f  2
  54  2.3840560e+01 3.36e+00 1.12e+00  -1.7 7.65e+01    -  3.84e-01 2.43e-01h  2
  55  2.5950157e+01 2.11e+00 1.91e+00  -1.7 3.82e+01    -  7.32e-01 1.00e+00h  1
  56  2.6169024e+01 6.20e-01 4.63e-01  -1.7 3.89e+01    -  8.12e-01 1.00e+00h  1
  57  2.6581673e+01 1.63e-01 6.17e-02  -1.7 6.55e+00    -  1.00e+00 1.00e+00h  1
  58  2.4083436e+01 3.45e-02 7.10e-02  -2.5 1.09e+01    -  5.03e-01 1.00e+00h  1
  59  2.3304283e+01 7.51e-03 9.84e-03  -2.5 1.59e+01    -  9.23e-01 9.54e-01h  1
iter    objective    inf_pr   inf_du lg(mu)  ||d||  lg(rg) alpha_du alpha_pr  ls
  60  2.3313938e+01 1.10e-03 5.90e-03  -2.5 2.84e+00    -  1.00e+00 1.00e+00h  1
  61  2.3095279e+01 8.99e-04 4.18e-03  -3.8 5.09e+00    -  9.47e-01 6.00e-01h  1
  62  2.3070801e+01 4.62e-04 2.13e-02  -3.8 2.12e+00    -  1.00e+00 5.30e-01h  1
  63  2.3060666e+01 6.52e-05 3.65e-03  -3.8 1.02e+00    -  1.00e+00 9.15e-01h  1
  64  2.3060192e+01 5.54e-07 1.28e-06  -3.8 4.84e-02    -  1.00e+00 1.00e+00h  1
  65  2.3058993e+01 1.89e-06 6.03e-03  -5.7 1.82e-01    -  1.00e+00 6.55e-01h  1
  66  2.3058869e+01 7.79e-07 1.85e-03  -5.7 9.01e-02    -  1.00e+00 8.63e-01h  1
  67  2.3058866e+01 2.48e-07 3.19e-07  -5.7 6.23e-02    -  1.00e+00 1.00e+00h  1
  68  2.3058858e+01 2.58e-08 2.00e-04  -7.0 1.64e-02    -  1.00e+00 9.64e-01h  1
  69  2.3058858e+01 6.13e-10 7.75e-10  -7.0 2.62e-03    -  1.00e+00 1.00e+00f  1

Number of Iterations....: 69

                                   (scaled)                 (unscaled)
Objective...............:   2.3058857777632475e+01    2.3058857777632475e+01
Dual infeasibility......:   7.7537988182885265e-10    7.7537988182885265e-10
Constraint violation....:   6.1286531405357891e-10    6.1286531405357891e-10
Variable bound violation:   0.0000000000000000e+00    0.0000000000000000e+00
Complementarity.........:   9.3402392249447706e-08    9.3402392249447706e-08
Overall NLP error.......:   9.3402392249447706e-08    9.3402392249447706e-08


Number of objective function evaluations             = 80
Number of objective gradient evaluations             = 70
Number of equality constraint evaluations            = 80
Number of inequality constraint evaluations          = 80
Number of equality constraint Jacobian evaluations   = 70
Number of inequality constraint Jacobian evaluations = 70
Number of Lagrangian Hessian evaluations             = 69
Total seconds in IPOPT                               = 17.305

EXIT: Optimal Solution Found.
      solver  :   t_proc      (avg)   t_wall      (avg)    n_eval
       nlp_f  |  56.14ms (701.80us)  28.45ms (355.67us)        80
       nlp_g  |   1.35 s ( 16.85ms) 635.42ms (  7.94ms)        80
  nlp_grad_f  |  63.14ms (889.24us)  46.01ms (647.98us)        71
  nlp_hess_l  |  10.05 s (145.68ms)  10.13 s (146.78ms)        69
   nlp_jac_g  |   3.60 s ( 50.75ms)   3.13 s ( 44.05ms)        71
       total  |  23.23 s ( 23.23 s)  17.31 s ( 17.31 s)         1
  Success: True
  Cost: 23.0589
  Iterations: 69
  Solve time: 33.57 s
  Max obstacle slack: 0.0000e+00
  Min obstacle clearance: -0.0009 m

Generating plots...
  Saved: /run/media/saveas/Secondary-Storage/Masters/CS234/CS234_Reinforcement_Learning/Final Project/CS234_Final_Project/results/trajectory_optimization/ipopt_single_stage_trajectory.png
  Saved: /run/media/saveas/Secondary-Storage/Masters/CS234/CS234_Reinforcement_Learning/Final Project/CS234_Final_Project/results/trajectory_optimization/ipopt_single_stage_states.png
  Saved: /run/media/saveas/Secondary-Storage/Masters/CS234/CS234_Reinforcement_Learning/Final Project/CS234_Final_Project/results/trajectory_optimization/ipopt_single_stage_controls.png

Generating animation...
  Saved: /run/media/saveas/Secondary-Storage/Masters/CS234/CS234_Reinforcement_Learning/Final Project/CS234_Final_Project/results/trajectory_optimization/ipopt_single_stage_animation.gif

======================================================================
SUMMARY
======================================================================
Run                       Iters    Time [s]   Cost [s]   Max Sigma    Min Clear [m]  Success
-----------------------------------------------------------------------------------------------
Single stage              69       33.57      23.0589    0.000e+00    -0.0009        True

All outputs saved to: /run/media/saveas/Secondary-Storage/Masters/CS234/CS234_Reinforcement_Learning/Final Project/CS234_Final_Project/results/trajectory_optimization
